! {FUNC} {BASIS} TightSCF RIJONX DEFGRID3
%basis
  AuxJ "AutoAux"
end

%pal
nprocs 8
end
%maxcore 1400

*xyz {chrg} {mult}
{coord}
*
