! {FUNC} TightSCF RIJONX DEFGRID3
%basis
  GTOName "{BASISHELP}"
  AuxJ "AutoAux"
end

%pal
nprocs 8
end
%maxcore 1400

*xyz {chrg} {mult}
{coord}
*
